NPROCS=0
This instance is clustered!
Gurobi Optimizer version 9.0.0 build v9.0.0rc2 (linux64)
Optimize a model with 28 rows, 197 columns and 392 nonzeros
Model fingerprint: 0xff3b27e9
Variable types: 1 continuous, 196 integer (196 binary)
Coefficient statistics:
  Matrix range     [1e+00, 1e+00]
  Objective range  [1e+00, 1e+02]
  Bounds range     [1e+00, 1e+00]
  RHS range        [1e+00, 1e+00]
Presolve removed 2 rows and 39 columns
Presolve time: 0.00s
Presolved: 26 rows, 158 columns, 314 nonzeros
Variable types: 1 continuous, 157 integer (157 binary)

Root relaxation: objective 1.897711e+02, 22 iterations, 0.00 seconds
 done with super cut 0

    Nodes    |    Current Node    |     Objective Bounds      |     Work
 Expl Unexpl |  Obj  Depth IntInf | Incumbent    BestBd   Gap | It/Node Time

     0     0  309.42091    0   24          -  309.42091      -     -    0s
 done with super cut 1
     0     0  316.94231    0   27          -  316.94231      -     -    0s
 done with super cut 2
 done with super cut 3
 done with super cut 4
H    0     0                     505.5097509  316.94231  37.3%     -    0s
     0     0  319.24922    0   26  505.50975  319.24922  36.8%     -    0s
 done with super cut 5
 done with super cut 6
 done with super cut 7
 done with super cut 8
H    0     0                     416.0166600  323.65450  22.2%     -    1s
     0     2  323.65450    0   26  416.01666  323.65450  22.2%     -    1s
 done with super cut 9
 done with super cut 10
H 1770   430                     414.8406305  380.02287  8.39%   6.6    3s

Cutting planes:
  Gomory: 1
  Lazy constraints: 166

Explored 2974 nodes (21787 simplex iterations) in 3.44 seconds
Thread count was 12 (of 12 available processors)

Solution count 3: 414.841 416.017 505.51 

Optimal solution found (tolerance 1.00e-04)
Best objective 4.148406304841e+02, best bound 4.148406304841e+02, gap 0.0000%

User-callback calls 6336, time in user-callback 3.18 sec
/projects/academic/josewalt/caigao/RRARP_BD/BendersDecomp/ret/model_outs/n_12_h_1_algo_4.out
 =====>>>>> Solution is written to file in <../ret/model_outs> !!!
===>> All Done!
